000 000 000 000 000 -99 000 000 -99 -99 -99 -99 000 000 000 -99 -99 -99 000 000 -99 -99 -99 000 000 000 000 001 003 006 002
-99 000 000 000 000 000 000 000 000 -99 -99 -99 -99 000 000 000 -99 -99 -99 000 000 000 000 000 000 000 001 001 003 006 003
-99 000 000 000 000 000 000 000 000 -99 -99 -99 -99 -99 000 000 000 -99 -99 -99 000 000 000 000 000 000 000 000 001 005 005
000 000 000 000 000 000 000 000 000 -99 -99 -99 -99 -99 000 000 -99 -99 -99 000 000 -99 000 000 000 000 000 000 001 005 003
000 000 000 000 000 000 000 000 000 000 -99 000 000 000 000 000 -99 -99 -99 -99 000 000 000 000 000 000 000 000 001 002 002
000 000 000 000 000 000 000 000 000 000 -99 000 000 000 000 000 000 000 -99 -99 000 000 000 000 000 -99 -99 000 001 001 002
000 000 000 000 000 000 000 000 000 000 000 000 000 000 000 000 000 000 -99 -99 000 000 000 000 000 -99 -99 -99 -99 -99 001
000 000 000 000 000 000 -99 000 000 000 000 -99 000 000 000 000 000 000 000 -99 000 000 000 000 000 -99 -99 -99 -99 000 001
000 000 000 000 000 -99 000 000 000 -99 000 000 -99 -99 000 000 000 000 000 -99 000 -99 000 000 000 -99 -99 -99 -99 000 000
000 000 000 000 000 000 -99 000 000 000 000 000 000 -99 000 000 000 000 000 -99 000 000 -99 -99 000 -99 -99 -99 000 000 000
000 000 000 000 000 -99 000 000 000 000 000 000 -99 -99 000 000 000 000 000 000 -99 000 -99 -99 000 000 -99 -99 000 000 000
000 000 000 000 000 000 -99 000 000 000 000 000 -99 -99 000 000 000 000 000 000 -99 000 -99 000 000 -99 -99 -99 000 000 000
000 000 000 000 000 000 000 000 000 -99 000 000 -99 -99 -99 000 000 -99 000 000 -99 -99 -99 -99 000 000 -99 -99 000 000 000
000 000 000 000 000 000 000 000 000 -99 -99 -99 -99 -99 -99 000 000 -99 -99 000 -99 -99 -99 000 000 000 -99 -99 000 000 000
000 000 -99 000 000 000 000 000 000 -99 -99 -99 -99 -99 -99 000 000 -99 000 000 -99 -99 -99 000 000 000 000 -99 000 000 000
000 -99 000 000 000 000 000 000 000 -99 -99 -99 -99 -99 -99 000 -99 -99 000 -99 -99 000 -99 000 000 000 000 -99 000 000 000
000 -99 000 000 -99 000 000 000 000 -99 -99 -99 -99 000 -99 000 000 000 000 -99 -99 -99 000 000 000 000 -99 -99 000 000 000
000 000 -99 -99 -99 -99 000 000 000 -99 -99 -99 -99 -99 -99 000 000 000 -99 -99 -99 000 000 -99 000 000 -99 -99 000 000 000
000 000 000 000 -99 -99 -99 000 000 -99 -99 -99 -99 -99 -99 000 000 000 000 -99 -99 000 000 -99 -99 -99 -99 -99 000 000 000
000 000 000 000 000 000 -99 000 000 -99 000 000 -99 -99 -99 000 000 000 000 -99 -99 000 000 -99 -99 -99 -99 -99 000 000 000
000 000 000 000 000 000 -99 000 000 000 000 -99 -99 -99 -99 000 000 000 000 000 000 000 000 -99 -99 -99 -99 -99 -99 -99 -99
000 000 000 000 000 000 000 000 000 000 000 -99 -99 -99 -99 000 000 000 000 000 000 000 000 -99 -99 -99 -99 -99 -99 -99 -99
000 000 000 000 000 000 000 000 000 000 -99 -99 -99 -99 000 000 000 000 000 000 000 000 000 -99 -99 -99 -99 -99 -99 -99 -99
000 000 000 000 000 000 000 000 000 -99 -99 -99 000 000 000 000 000 000 000 000 000 000 000 -99 -99 -99 -99 -99 -99 -99 -99
000 000 000 000 000 000 000 000 000 000 000 -99 000 000 000 000 000 000 000 000 000 000 000 -99 -99 -99 -99 -99 -99 -99 -99
000 000 000 000 000 000 000 000 000 000 000 -99 000 000 000 000 000 000 000 000 000 000 -99 -99 -99 -99 -99 -99 -99 -99 000
000 000 000 000 000 000 000 000 000 000 -99 -99 -99 000 -99 -99 000 000 000 000 000 000 000 -99 -99 -99 -99 -99 -99 -99 000
000 000 000 000 000 000 000 000 000 000 -99 -99 -99 000 000 000 000 000 000 000 000 000 000 -99 -99 -99 -99 -99 -99 -99 000
000 000 -99 -99 000 000 000 000 000 000 -99 -99 -99 000 000 000 000 000 000 000 000 000 -99 -99 -99 -99 -99 -99 -99 -99 000
000 000 -99 -99 000 000 000 000 000 000 -99 -99 -99 000 000 000 000 000 000 000 000 000 -99 -99 -99 -99 -99 -99 -99 -99 -99
-99 000 000 000 000 000 000 000 000 000 -99 -99 -99 000 000 000 000 000 000 000 000 -99 -99 000 000 -99 -99 -99 -99 -99 -99
000 000 000 000 000 000 000 000 000 -99 -99 -99 -99 000 000 -99 000 000 000 -99 -99 000 000 000 000 -99 -99 -99 -99 -99 -99
000 000 000 000 000 000 000 000 000 -99 -99 -99 -99 -99 000 -99 000 000 000 -99 -99 000 000 000 000 -99 -99 000 -99 -99 000
-99 000 000 000 000 000 000 -99 000 000 -99 -99 -99 000 000 000 000 000 000 000 000 000 000 000 000 000 000 000 000 000 000
000 000 000 000 000 000 000 -99 000 000 000 -99 -99 000 000 000 000 000 000 000 000 000 000 000 000 000 000 000 000 000 000
000 000 000 000 000 000 000 000 000 000 000 -99 000 000 000 000 000 000 000 000 000 000 -99 000 000 000 000 000 000 000 000
000 000 -99 -99 000 000 000 000 000 000 000 -99 000 000 000 000 000 000 000 000 000 000 000 000 000 000 000 000 000 000 000
000 -99 000 000 000 000 000 000 000 000 -99 000 000 000 000 000 000 000 000 000 000 000 000 000 -99 -99 -99 000 000 000 -99
000 -99 000 000 000 000 -99 000 -99 -99 -99 000 000 000 000 000 000 000 000 000 000 000 000 000 000 -99 -99 -99 000 000 -99
000 000 000 000 000 -99 -99 -99 -99 -99 -99 000 000 000 000 000 000 000 000 000 000 -99 000 000 000 -99 -99 -99 000 000 -99
000 000 000 000 000 -99 -99 -99 -99 -99 000 000 000 000 000 000 000 000 000 000 -99 000 000 000 000 -99 -99 -99 -99 000 000
000 000 -99 000 -99 000 000 000 -99 -99 000 000 000 000 000 000 000 000 000 -99 -99 000 000 000 000 -99 -99 -99 000 000 000
000 000 -99 -99 -99 000 000 000 -99 000 000 000 000 000 -99 000 000 000 000 -99 -99 -99 000 000 000 000 -99 -99 -99 000 000
000 000 -99 -99 -99 000 000 -99 -99 000 000 000 000 000 000 000 000 000 000 000 000 -99 000 -99 000 000 -99 -99 000 000 000
000 000 -99 -99 -99 -99 -99 -99 -99 -99 000 000 000 -99 000 000 000 000 000 000 000 -99 -99 000 000 -99 -99 -99 000 -99 000
000 -99 -99 -99 -99 -99 -99 -99 -99 -99 000 000 000 -99 000 000 000 000 000 000 -99 -99 -99 -99 000 -99 -99 -99 -99 -99 000
-99 -99 -99 -99 -99 -99 -99 -99 -99 -99 000 000 -99 -99 000 -99 -99 000 000 000 -99 -99 000 -99 -99 -99 -99 -99 -99 000 000
-99 -99 -99 -99 -99 -99 -99 -99 -99 -99 -99 000 -99 -99 -99 -99 -99 -99 000 -99 -99 -99 000 000 -99 -99 -99 -99 -99 000 -99
-99 -99 -99 -99 -99 -99 -99 -99 -99 -99 -99 -99 -99 -99 -99 -99 -99 000 000 -99 -99 -99 000 000 -99 000 000 000 -99 -99 -99
-99 -99 -99 -99 -99 -99 -99 -99 -99 -99 -99 -99 -99 -99 -99 -99 -99 000 000 -99 -99 000 -99 -99 -99 000 000 000 -99 -99 -99
-99 -99 -99 -99 -99 -99 -99 -99 -99 -99 -99 -99 000 -99 -99 -99 000 000 -99 -99 -99 000 -99 -99 -99 000 -99 -99 -99 -99 -99
-99 -99 -99 -99 -99 -99 -99 -99 -99 -99 -99 -99 000 000 -99 -99 -99 000 000 000 -99 -99 -99 -99 -99 000 -99 -99 -99 -99 -99
-99 -99 -99 -99 -99 -99 -99 -99 -99 -99 -99 -99 -99 -99 -99 -99 -99 -99 000 -99 -99 000 -99 -99 -99 -99 -99 -99 -99 -99 -99
-99 -99 -99 -99 -99 -99 -99 -99 -99 -99 -99 -99 -99 -99 -99 -99 -99 -99 -99 -99 -99 000 -99 -99 -99 -99 -99 -99 -99 -99 -99
-99 -99 -99 -99 -99 -99 -99 -99 -99 -99 -99 -99 -99 -99 -99 -99 -99 -99 -99 -99 -99 -99 -99 -99 -99 -99 -99 -99 -99 -99 -99
